LatticeConstant 1.0 Ang
%block LatticeVectors
 16.28887200 0.00000000 0.00000000
 0.00000000 14.57622500 0.00000000
 0.00000000 0.00000000 12.67493400
%endblock LatticeVectors

NumberOfAtoms 15
AtomicCoordinatesFormat Ang
%block AtomicCoordinatesAndAtomicSpecies
 -0.03403100  0.12880500 -0.14606700 1 #  1: N
 -1.45927100  0.03321300 -0.09653500 2 #  2: C
 -2.15268400  1.33243100 -0.22978000 2 #  3: C
 -1.44313200  2.45703600  0.05525200 2 #  4: C
 -0.08012200  2.42541700  0.39732100 1 #  5: N
  0.71877200  1.28992600  0.05695400 2 #  6: C
 -3.27136600  1.32603400 -1.25030100 2 #  7: C
 -4.32029200  1.38530700 -0.89906000 3 #  8: H
 -3.00795500  2.15573200 -1.93288700 3 #  9: H
 -3.11346400  0.36648100 -1.79530600 3 # 10: H
 -1.88735600  3.47839000 -0.06490700 3 # 11: H
  0.47584900  3.24443500  0.74204700 3 # 12: H
  0.42668300 -0.68469500 -0.65269700 3 # 13: H
  1.96858000  1.30765300 -0.03368700 4 # 14: O
 -1.98411800 -1.09783500  0.01873200 4 # 15: O
%endblock AtomicCoordinatesAndAtomicSpecies

NumberOfSpecies 4
%block ChemicalSpeciesLabel
 1 7 N
 2 6 C
 3 1 H
 4 8 O
%endblock ChemicalSpeciesLabel
