LatticeConstant 1.0 Ang
%block LatticeVectors
 16.33553400 0.00000000 0.00000000
 0.00000000 14.67654200 0.00000000
 0.00000000 0.00000000 12.70312700
%endblock LatticeVectors

NumberOfAtoms 15
AtomicCoordinatesFormat Ang
%block AtomicCoordinatesAndAtomicSpecies
  0.00000000  0.00000000  0.00000000 1 #  1: N
 -1.50000000  0.00000000  0.00000000 2 #  2: C
 -2.24999900  1.29903900  0.00000000 2 #  3: C
 -1.49999500  2.59807900 -0.00022600 2 #  4: C
  0.00000500  2.59807600 -0.00067700 1 #  5: N
  0.75000100  1.29903600 -0.00112900 2 #  6: C
 -3.12123700  1.29893200 -1.22104200 2 #  7: C
 -4.18553400  1.40180100 -0.91864000 3 #  8: H
 -2.87118700  2.15096200 -1.88968800 3 #  9: H
 -3.01760100  0.35394400 -1.79734600 3 # 10: H
 -1.99999200  3.46410700 -0.00007500 3 # 11: H
  0.29060200  3.10083700  0.81343900 3 # 12: H
  0.29035200 -0.50361100 -0.81367800 3 # 13: H
  2.15000000  1.29903200 -0.00260500 4 # 14: O
 -2.20000100 -1.21243500 -0.00000000 4 # 15: O
%endblock AtomicCoordinatesAndAtomicSpecies

NumberOfSpecies 4
%block ChemicalSpeciesLabel
 1 7 N
 2 6 C
 3 1 H
 4 8 O
%endblock ChemicalSpeciesLabel
